Route #1: 1 20 25 44 53 27 55 47 6 1
Route #2: 1 29 35 15 43 58 12 64 26 5 48 3 1
Route #3: 1 8 28 66 61 56 22 65 1
Route #4: 1 32 19 54 10 31 52 4 16 45 7 1
Route #5: 1 38 18 33 49 51 17 2 11 59 1
Route #6: 1 24 67 14 36 46 21 42 30 1
Route #7: 1 39 40 57 63 41 1
Route #8: 1 23 13 69 60 9 37 1
Route #9: 1 68 62 34 50 1
cost 1419
